# Objective value = 21
WA1n 0
WA1p 0
WA2n 1
WA2p 0
WB1n 0
WB1p 0
WB2n 1
WB2p 0
WC1n 0
WC1p 0
WC2n 0
WC2p 1
WD1n 0
WD1p 1
WD2n 0
WD2p 1
WE1n 2
WE1p 0
WF1n 0
WF1p 2
WG1n 5
WG1p 0
WG2n 1
WG2p 0
WT1n 1
WT1p 0
5 7
a 0
b 0
c 0
d 0
e 0
f 1
g 1
h 1
i 0
j 1
k 0
l 0
m 0
